Reading model...
...model read.
creating competitive generators file...
...competitive generators recorded.
Loading data...
.. day-ahead data read.
Compiling instance...
...instance created.
Creating Offer Mitigation (model will solve as dispatch if TRUE)...
Solving...

Welcome to IBM(R) ILOG(R) CPLEX(R) Interactive Optimizer 12.10.0.0
  with Simplex, Mixed Integer & Barrier Optimizers
5725-A06 5725-A29 5724-Y48 5724-Y49 5724-Y54 5724-Y55 5655-Y21
Copyright IBM Corp. 1988, 2019.  All Rights Reserved.

Type 'help' for a list of available commands.
Type 'help' followed by a command name for more
information on commands.

CPLEX> Logfile 'cplex.log' closed.
Logfile 'C:\Users\wenmi\Desktop\competitiveMPEC\logs\tmp4yobubkj.cplex.log' open.
CPLEX> New value for parallel optimization mode: -1
CPLEX> New value for mixed integer optimality gap tolerance: 0.01
CPLEX> New value for deterministic time limit in ticks: 30000
CPLEX> Problem 'C:\Users\wenmi\Desktop\competitiveMPEC\logs\tmpm1m9prll.pyomo.lp' read.
Read time = 0.03 sec. (2.91 ticks)
CPLEX> Problem name         : C:\Users\wenmi\Desktop\competitiveMPEC\logs\tmpm1m9prll.pyomo.lp
Objective sense      : Minimize
Variables            :   26077  [Nneg: 1,  Box: 21612,  Free: 4464]
Objective nonzeros   :    2496
Linear constraints   :   27539  [Less: 14030,  Greater: 4416,  Equal: 9093]
  Nonzeros           :   86845
  RHS nonzeros       :   12260

Variables            : Min LB: -5000.000        Max UB: 1000000.       
Objective nonzeros   : Min   : 15.73158         Max   : 124.0997       
Linear constraints   :
  Nonzeros           : Min   : 0.9219544        Max   : 3000.000       
  RHS nonzeros       : Min   : 0.1000000        Max   : 5000.000       
CPLEX> Version identifier: 12.10.0.0 | 2019-11-26 | 843d4de2ae
CPXPARAM_Parallel                                -1
CPXPARAM_DetTimeLimit                            30000
CPXPARAM_MIP_Tolerances_MIPGap                   0.01
Parallel mode: opportunistic, using up to 16 threads for concurrent optimization:
 * Starting dual Simplex on 1 thread...
 * Starting Barrier on 14 threads...
 * Starting primal Simplex on 1 thread...
Tried aggregator 1 time.
LP Presolve eliminated 21379 rows and 15496 columns.
Aggregator did 800 substitutions.
Reduced LP has 5360 rows, 9781 columns, and 30438 nonzeros.
Presolve time = 0.03 sec. (29.33 ticks)
Symmetry aggregator did 5566 additional substitutions.
Initializing dual steep norms . . .

Iteration log . . .
Iteration:     1   Dual objective     =             0.000000
Perturbation started.
Iteration:   101   Dual objective     =             0.000000
Iteration:   351   Dual objective     =            52.538892
Iteration:   584   Dual objective     =            62.562473
Iteration:   788   Dual objective     =            62.695657
Iteration:   956   Dual objective     =        154690.970749
Iteration:  1153   Dual objective     =        177220.801225
Removing perturbation.

Dual crossover.
  Dual:  Fixing 5 variables.
        4 DMoves:  Infeasibility  8.94242309e-14  Objective  1.77432703e+05
        0 DMoves:  Infeasibility  2.21999445e-14  Objective  1.77432703e+05
  Dual:  Pushed 0, exchanged 5.
  Primal:  Fixing 3 variables.
        2 PMoves:  Infeasibility  1.42608769e-09  Objective  1.77432703e+05
        0 PMoves:  Infeasibility  1.42608769e-09  Objective  1.77432703e+05
  Primal:  Pushed 3, exchanged 0.

Dual simplex solved model.


Dual simplex - Optimal:  Objective =  1.7743270258e+05
Solution time =    0.08 sec.  Iterations = 1320 (0)
Deterministic time = 74.54 ticks  (955.66 ticks/sec)

CPLEX> Solution written to file 'C:\Users\wenmi\Desktop\competitiveMPEC\logs\tmpdkdh6usb.cplex.sol'.
CPLEX> Exporting results... 
...storage offer mitigation file created
Converting model to MPEC...
...converted
NOTE: initial MIP solve with only storage competitive to get feasible solution
Solving...

Welcome to IBM(R) ILOG(R) CPLEX(R) Interactive Optimizer 12.10.0.0
  with Simplex, Mixed Integer & Barrier Optimizers
5725-A06 5725-A29 5724-Y48 5724-Y49 5724-Y54 5724-Y55 5655-Y21
Copyright IBM Corp. 1988, 2019.  All Rights Reserved.

Type 'help' for a list of available commands.
Type 'help' followed by a command name for more
information on commands.

CPLEX> Logfile 'cplex.log' closed.
Logfile 'C:\Users\wenmi\Desktop\competitiveMPEC\logs\tmp8dbamj6_.cplex.log' open.
CPLEX> New value for parallel optimization mode: -1
CPLEX> New value for mixed integer optimality gap tolerance: 0.01
CPLEX> New value for deterministic time limit in ticks: 30000
CPLEX> Problem 'C:\Users\wenmi\Desktop\competitiveMPEC\logs\tmprtgw65f5.pyomo.lp' read.
Read time = 0.14 sec. (13.78 ticks)
CPLEX> Problem name         : C:\Users\wenmi\Desktop\competitiveMPEC\logs\tmprtgw65f5.pyomo.lp
Objective sense      : Maximize
Variables            :   53803  [Nneg: 1,  Box: 21998,  Free: 4464,
                                 Binary: 27340]
Objective nonzeros   :    9042
Linear constraints   :  123229  [Less: 41370,  Greater: 59096,  Equal: 22763]
  Nonzeros           :  289344
  RHS nonzeros       :   67480

Variables            : Min LB: -5000.000        Max UB: 1000000.       
Objective nonzeros   : Min   : 0.1000000        Max   : 2500.000       
Linear constraints   :
  Nonzeros           : Min   : 0.1000000        Max   : 1000000.       
  RHS nonzeros       : Min   : 0.1000000        Max   : 1000000.       
CPLEX> Version identifier: 12.10.0.0 | 2019-11-26 | 843d4de2ae
CPXPARAM_Parallel                                -1
CPXPARAM_DetTimeLimit                            30000
CPXPARAM_MIP_Tolerances_MIPGap                   0.01
Tried aggregator 3 times.
MIP Presolve eliminated 88927 rows and 19175 columns.
MIP Presolve added 3361 rows and 0 columns.
MIP Presolve modified 24830 coefficients.
Aggregator did 12975 substitutions.
Reduced MIP has 24688 rows, 21071 columns, and 68042 nonzeros.
Reduced MIP has 8311 binaries, 0 generals, 0 SOSs, and 0 indicators.
Presolve time = 0.16 sec. (164.70 ticks)
Probing fixed 360 vars, tightened 4276 bounds.
Probing time = 0.03 sec. (18.19 ticks)
Tried aggregator 2 times.
Detecting symmetries...
MIP Presolve eliminated 813 rows and 722 columns.
MIP Presolve modified 3091 coefficients.
Aggregator did 36 substitutions.
Reduced MIP has 23839 rows, 20313 columns, and 65586 nonzeros.
Reduced MIP has 7950 binaries, 0 generals, 0 SOSs, and 0 indicators.
Presolve time = 0.06 sec. (89.28 ticks)
Probing fixed 0 vars, tightened 289 bounds.
Probing time = 0.08 sec. (22.11 ticks)
Clique table members: 44533.
MIP emphasis: balance optimality and feasibility.
MIP search method: dynamic search.
Parallel mode: opportunistic, using up to 16 threads.
Root relaxation solution time = 0.25 sec. (598.18 ticks)

        Nodes                                         Cuts/
   Node  Left     Objective  IInf  Best Integer    Best Bound    ItCnt     Gap

      0     0     7815.0539    89                   7815.0539     5363         
*     0+    0                         7749.2059     7815.0539             0.85%

Root node processing (before b&c):
  Real time             =    0.88 sec. (1168.77 ticks)
Parallel b&c, 16 threads:
  Real time             =    0.00 sec. (0.00 ticks)
  Sync time (average)   =    0.00 sec.
  Wait time (average)   =    0.00 sec.
                          ------------
Total (root+branch&cut) =    0.88 sec. (1168.77 ticks)

Solution pool: 1 solution saved.

MIP - Integer optimal, tolerance (0.01/1e-06):  Objective =  7.7492058797e+03
Current MIP best bound =  7.8150539254e+03 (gap = 65.848, 0.85%)
Solution time =    0.89 sec.  Iterations = 5363  Nodes = 0 (1)
Deterministic time = 1168.92 ticks  (1313.39 ticks/sec)

CPLEX> Incumbent solution written to file 'C:\Users\wenmi\Desktop\competitiveMPEC\logs\tmp0ec4kllm.cplex.sol'.
CPLEX> NOTE: no warmstart specified for MIP iteration, default behavior is true
NOTE: resolving with all competitive generators using storage-only solution to warmstart
Solving...

Welcome to IBM(R) ILOG(R) CPLEX(R) Interactive Optimizer 12.10.0.0
  with Simplex, Mixed Integer & Barrier Optimizers
5725-A06 5725-A29 5724-Y48 5724-Y49 5724-Y54 5724-Y55 5655-Y21
Copyright IBM Corp. 1988, 2019.  All Rights Reserved.

Type 'help' for a list of available commands.
Type 'help' followed by a command name for more
information on commands.

CPLEX> Logfile 'cplex.log' closed.
Logfile 'C:\Users\wenmi\Desktop\competitiveMPEC\logs\tmpwi8d21mm.cplex.log' open.
CPLEX> New value for parallel optimization mode: -1
CPLEX> New value for mixed integer optimality gap tolerance: 0.01
CPLEX> New value for deterministic time limit in ticks: 30000
CPLEX> Problem 'C:\Users\wenmi\Desktop\competitiveMPEC\logs\tmphv_7ofgq.pyomo.lp' read.
Read time = 0.14 sec. (13.80 ticks)
CPLEX> MIP start file 'C:\Users\wenmi\Desktop\competitiveMPEC\logs\tmpyn0pgao2.cplex.mst' read.
CPLEX> Problem name         : C:\Users\wenmi\Desktop\competitiveMPEC\logs\tmphv_7ofgq.pyomo.lp
Objective sense      : Maximize
Variables            :   54523  [Nneg: 1,  Box: 22718,  Free: 4464,
                                 Binary: 27340]
Objective nonzeros   :    9738
Linear constraints   :  123229  [Less: 41370,  Greater: 59096,  Equal: 22763]
  Nonzeros           :  289344
  RHS nonzeros       :   67480

Variables            : Min LB: -5000.000        Max UB: 1000000.       
Objective nonzeros   : Min   : 0.1000000        Max   : 2500.000       
Linear constraints   :
  Nonzeros           : Min   : 0.1000000        Max   : 1000000.       
  RHS nonzeros       : Min   : 0.1000000        Max   : 1000000.       
CPLEX> Version identifier: 12.10.0.0 | 2019-11-26 | 843d4de2ae
CPXPARAM_Parallel                                -1
CPXPARAM_DetTimeLimit                            30000
CPXPARAM_MIP_Tolerances_MIPGap                   0.01
Warning:  No solution found from 1 MIP starts.
Retaining values of one MIP start for possible repair.
Tried aggregator 3 times.
MIP Presolve eliminated 88927 rows and 19895 columns.
MIP Presolve added 3361 rows and 0 columns.
MIP Presolve modified 24830 coefficients.
Aggregator did 12975 substitutions.
Reduced MIP has 24688 rows, 21071 columns, and 68042 nonzeros.
Reduced MIP has 8311 binaries, 0 generals, 0 SOSs, and 0 indicators.
Presolve time = 0.16 sec. (165.05 ticks)
Probing fixed 360 vars, tightened 4276 bounds.
Probing time = 0.03 sec. (18.19 ticks)
Tried aggregator 2 times.
Detecting symmetries...
MIP Presolve eliminated 813 rows and 722 columns.
MIP Presolve modified 3091 coefficients.
Aggregator did 36 substitutions.
Reduced MIP has 23839 rows, 20313 columns, and 65586 nonzeros.
Reduced MIP has 7950 binaries, 0 generals, 0 SOSs, and 0 indicators.
Presolve time = 0.06 sec. (89.29 ticks)
Probing fixed 0 vars, tightened 289 bounds.
Probing time = 0.08 sec. (22.11 ticks)
Clique table members: 44533.
MIP emphasis: balance optimality and feasibility.
MIP search method: dynamic search.
Parallel mode: opportunistic, using up to 16 threads.
Root relaxation solution time = 0.28 sec. (623.91 ticks)

        Nodes                                         Cuts/
   Node  Left     Objective  IInf  Best Integer    Best Bound    ItCnt     Gap

      0     0    79859.5613   179                  79859.5613     5703         
      0     0    79008.4514   179                    Cuts: 90     5771         
      0     0    78994.8798   179                    Cuts: 14     5785         
      0     0    78946.9453   179                     Cuts: 5     5802         
      0     0    78946.9453   179                     Cuts: 4     5808         
*     0+    0                        51455.0857    78946.9453            53.43%
      0     0    78946.9453   179    51455.0857       Cuts: 3     5818   53.43%
Repair heuristic found nothing.
      0     2    78946.9453    70    51455.0857    78928.6131     5818   53.39%
Elapsed time = 3.14 sec. (2672.26 ticks, tree = 0.02 MB, solutions = 1)
    292    58    60602.2410    45    51455.0857    78471.2834     6223   52.50%
    631   381    69050.8530    38    51455.0857    78471.2834     8875   52.50%
    934   591    69166.0221    37    51455.0857    78471.2834    11377   52.50%
   1219   626    67057.8853    32    51455.0857    78471.2834    11770   52.50%
   1571   749    61135.4267    13    51455.0857    78471.2834    12626   52.50%
   2017  1286    59014.6674     7    61110.2032    78471.2834    15618   28.41%
   2496  1303    61134.7953     7    61110.2032    78221.5068    17792   28.00%
   2876  1445    68266.8226    37    61110.2032    78221.5068    18540   28.00%
   3267  1181    61132.9056    20    61110.2032    78216.3773    17252   27.99%
   5038  2397    67580.8005    37    61110.2032    77854.9997    24292   27.40%
Elapsed time = 14.19 sec. (5780.07 ticks, tree = 17.66 MB, solutions = 3)

Performing restart 1

Repeating presolve.
Tried aggregator 3 times.
MIP Presolve eliminated 1691 rows and 1421 columns.
MIP Presolve modified 50653 coefficients.
Aggregator did 291 substitutions.
Reduced MIP has 21857 rows, 18601 columns, and 59706 nonzeros.
Reduced MIP has 7318 binaries, 0 generals, 0 SOSs, and 0 indicators.
Presolve time = 0.13 sec. (122.84 ticks)
Tried aggregator 3 times.
MIP Presolve eliminated 463 rows and 382 columns.
MIP Presolve modified 12939 coefficients.
Aggregator did 24 substitutions.
Reduced MIP has 21370 rows, 18195 columns, and 58438 nonzeros.
Reduced MIP has 7127 binaries, 0 generals, 0 SOSs, and 0 indicators.
Presolve time = 0.05 sec. (57.29 ticks)
Tried aggregator 1 time.
MIP Presolve modified 9356 coefficients.
Reduced MIP has 21370 rows, 18195 columns, and 58438 nonzeros.
Reduced MIP has 7127 binaries, 0 generals, 0 SOSs, and 0 indicators.
Presolve time = 0.05 sec. (44.65 ticks)
Represolve time = 0.61 sec. (497.09 ticks)
   5104     0    78700.2290   140    61110.2032     Cuts: 246    36233   26.20%
   5104     0    78650.9411   140    61110.2032      Cuts: 75    36288   26.20%
   5104     0    78639.8930   140    61110.2032     Cuts: 117    36357   26.20%
   5104     0    78571.5758   140    61110.2032      Cuts: 55    36403   26.20%
   5104     0    78563.0550   140    61110.2032      Cuts: 94    36463   26.20%
   5104     0    78562.0866   140    61110.2032      Cuts: 87    36512   26.20%
   5104    14    68283.1354    46    61110.2032    71093.1732    36643   16.34%
   5366    79    61615.0324    37    61110.2032    71093.1732    39466   16.34%
   6154   113        cutoff          61110.2032    70416.1838    40515   15.23%

Clique cuts applied:  2
Cover cuts applied:  1
Implied bound cuts applied:  13
Flow cuts applied:  24
Mixed integer rounding cuts applied:  24
Lift and project cuts applied:  11
Gomory fractional cuts applied:  10

Root node processing (before b&c):
  Real time             =    2.73 sec. (2624.70 ticks)
Parallel b&c, 16 threads:
  Real time             =   21.89 sec. (9076.79 ticks)
  Sync time (average)   =    1.05 sec.
  Wait time (average)   =    0.02 sec.
                          ------------
Total (root+branch&cut) =   24.63 sec. (11701.49 ticks)

Solution pool: 3 solutions saved.

MIP - Integer optimal, tolerance (0.01/1e-06):  Objective =  6.1110203217e+04
Current MIP best bound =  6.1710653138e+04 (gap = 600.45, 0.98%)
Solution time =   24.64 sec.  Iterations = 45380  Nodes = 6255 (200)
Deterministic time = 11701.65 ticks  (474.90 ticks/sec)

CPLEX> Incumbent solution written to file 'C:\Users\wenmi\Desktop\competitiveMPEC\logs\tmp7eolaqhb.cplex.sol'.
CPLEX> Exporting results... 
